-297.0 6.0 8.0 1.0 3.0 4.0 9.0 1.0 10.0 4.0 5.0 9.0 10.0 3.0 3.0 6.0 9.0 8.0 0.0 5.0 3.0 0.0 3.0 2.0 7.0 7.0 9.0 3.0 5.0 7.0 6.0 2.0 8.0 9.0 1.0 6.0 4.0 4.0 9.0 8.0 2.0 6.0 7.0 1.0 7.0 4.0 3.0 9.0 10.0 2.0 1.0 3.0 8.0 7.0 9.0 3.0 6.0 2.0 
6.0 -306.0 5.0 8.0 4.0 7.0 1.0 8.0 2.0 9.0 1.0 5.0 7.0 5.0 6.0 9.0 6.0 1.0 4.0 9.0 6.0 4.0 10.0 4.0 9.0 8.0 10.0 5.0 1.0 4.0 3.0 8.0 3.0 7.0 9.0 7.0 2.0 5.0 10.0 4.0 5.0 9.0 10.0 3.0 7.0 3.0 2.0 10.0 5.0 7.0 6.0 2.0 2.0 6.0 7.0 0.0 0.0 0.0 
8.0 5.0 -277.0 10.0 0.0 6.0 8.0 0.0 2.0 4.0 6.0 6.0 2.0 0.0 1.0 9.0 1.0 2.0 5.0 6.0 3.0 7.0 3.0 9.0 8.0 4.0 6.0 5.0 6.0 7.0 8.0 2.0 5.0 7.0 10.0 8.0 0.0 1.0 2.0 5.0 8.0 9.0 3.0 2.0 1.0 7.0 8.0 5.0 0.0 4.0 8.0 10.0 8.0 4.0 0.0 0.0 8.0 5.0 
1.0 8.0 10.0 -319.0 10.0 7.0 1.0 6.0 3.0 10.0 9.0 3.0 2.0 10.0 9.0 3.0 2.0 9.0 5.0 8.0 8.0 5.0 6.0 6.0 7.0 1.0 2.0 9.0 4.0 10.0 7.0 6.0 9.0 6.0 10.0 2.0 0.0 0.0 9.0 10.0 2.0 7.0 8.0 0.0 8.0 0.0 8.0 7.0 7.0 0.0 3.0 8.0 10.0 8.0 0.0 6.0 2.0 2.0 
3.0 4.0 0.0 10.0 -293.0 7.0 5.0 7.0 0.0 9.0 1.0 2.0 2.0 2.0 3.0 6.0 6.0 4.0 10.0 2.0 5.0 10.0 10.0 10.0 7.0 8.0 8.0 1.0 4.0 5.0 8.0 4.0 1.0 6.0 2.0 4.0 3.0 4.0 9.0 3.0 6.0 9.0 5.0 6.0 8.0 6.0 9.0 5.0 6.0 0.0 0.0 4.0 2.0 9.0 5.0 6.0 2.0 10.0 
4.0 7.0 6.0 7.0 7.0 -277.0 6.0 9.0 2.0 4.0 0.0 3.0 6.0 1.0 6.0 9.0 0.0 7.0 9.0 9.0 2.0 1.0 1.0 8.0 7.0 3.0 2.0 4.0 2.0 2.0 4.0 8.0 2.0 5.0 6.0 5.0 10.0 6.0 5.0 1.0 0.0 4.0 5.0 9.0 7.0 5.0 9.0 7.0 9.0 0.0 1.0 3.0 7.0 10.0 3.0 3.0 4.0 5.0 
9.0 1.0 8.0 1.0 5.0 6.0 -256.0 5.0 1.0 10.0 8.0 8.0 8.0 0.0 1.0 2.0 9.0 0.0 10.0 4.0 7.0 1.0 2.0 6.0 0.0 6.0 0.0 9.0 3.0 5.0 6.0 2.0 2.0 3.0 4.0 5.0 5.0 4.0 8.0 6.0 0.0 8.0 3.0 0.0 9.0 6.0 6.0 7.0 2.0 3.0 0.0 7.0 0.0 2.0 5.0 7.0 8.0 3.0 
1.0 8.0 0.0 6.0 7.0 9.0 5.0 -283.0 9.0 2.0 5.0 4.0 7.0 1.0 0.0 9.0 0.0 10.0 1.0 9.0 5.0 4.0 9.0 7.0 7.0 7.0 10.0 10.0 2.0 9.0 0.0 3.0 7.0 1.0 2.0 6.0 8.0 7.0 7.0 5.0 0.0 0.0 7.0 6.0 5.0 6.0 5.0 2.0 5.0 9.0 2.0 5.0 6.0 8.0 0.0 1.0 1.0 6.0 
10.0 2.0 2.0 3.0 0.0 2.0 1.0 9.0 -243.0 2.0 1.0 7.0 2.0 1.0 0.0 7.0 2.0 7.0 7.0 5.0 3.0 7.0 3.0 6.0 5.0 4.0 2.0 1.0 0.0 9.0 2.0 0.0 9.0 5.0 1.0 9.0 10.0 4.0 2.0 1.0 4.0 9.0 7.0 2.0 0.0 3.0 7.0 8.0 10.0 3.0 3.0 7.0 2.0 9.0 2.0 8.0 0.0 6.0 
4.0 9.0 4.0 10.0 9.0 4.0 10.0 2.0 2.0 -272.0 2.0 10.0 2.0 4.0 10.0 5.0 0.0 1.0 1.0 4.0 0.0 3.0 5.0 0.0 1.0 4.0 1.0 6.0 5.0 0.0 4.0 7.0 8.0 2.0 8.0 2.0 8.0 4.0 6.0 10.0 8.0 7.0 9.0 1.0 2.0 6.0 1.0 9.0 0.0 8.0 9.0 4.0 5.0 10.0 8.0 5.0 3.0 0.0 
5.0 1.0 6.0 9.0 1.0 0.0 8.0 5.0 1.0 2.0 -287.0 10.0 2.0 3.0 7.0 5.0 7.0 5.0 2.0 0.0 4.0 2.0 7.0 4.0 5.0 0.0 6.0 9.0 7.0 6.0 2.0 10.0 5.0 3.0 10.0 1.0 0.0 2.0 6.0 10.0 8.0 1.0 10.0 3.0 9.0 6.0 6.0 6.0 9.0 8.0 7.0 3.0 3.0 6.0 6.0 6.0 2.0 10.0 
9.0 5.0 6.0 3.0 2.0 3.0 8.0 4.0 7.0 10.0 10.0 -304.0 9.0 1.0 3.0 0.0 6.0 2.0 10.0 2.0 3.0 4.0 0.0 8.0 6.0 7.0 9.0 3.0 8.0 9.0 0.0 6.0 2.0 7.0 8.0 6.0 8.0 7.0 6.0 9.0 8.0 1.0 9.0 6.0 6.0 0.0 8.0 0.0 0.0 9.0 0.0 6.0 7.0 3.0 7.0 0.0 10.0 8.0 
10.0 7.0 2.0 2.0 2.0 6.0 8.0 7.0 2.0 2.0 2.0 9.0 -263.0 9.0 0.0 6.0 3.0 10.0 4.0 0.0 6.0 5.0 0.0 3.0 7.0 8.0 9.0 7.0 8.0 0.0 2.0 5.0 0.0 6.0 6.0 5.0 1.0 2.0 7.0 1.0 8.0 3.0 2.0 8.0 5.0 7.0 1.0 4.0 8.0 10.0 0.0 0.0 9.0 6.0 2.0 7.0 4.0 0.0 
3.0 5.0 0.0 10.0 2.0 1.0 0.0 1.0 1.0 4.0 3.0 1.0 9.0 -220.0 4.0 8.0 1.0 8.0 4.0 1.0 2.0 8.0 2.0 3.0 4.0 3.0 6.0 1.0 10.0 1.0 2.0 7.0 3.0 1.0 4.0 7.0 8.0 2.0 0.0 0.0 1.0 8.0 0.0 3.0 9.0 9.0 7.0 1.0 8.0 0.0 2.0 3.0 9.0 5.0 1.0 2.0 9.0 3.0 
3.0 6.0 1.0 9.0 3.0 6.0 1.0 0.0 0.0 10.0 7.0 3.0 0.0 4.0 -266.0 0.0 1.0 9.0 2.0 10.0 3.0 8.0 3.0 6.0 8.0 3.0 4.0 5.0 1.0 6.0 0.0 9.0 7.0 3.0 4.0 9.0 8.0 10.0 4.0 7.0 8.0 0.0 2.0 7.0 6.0 3.0 0.0 2.0 8.0 6.0 7.0 8.0 9.0 1.0 10.0 3.0 1.0 2.0 
6.0 9.0 9.0 3.0 6.0 9.0 2.0 9.0 7.0 5.0 5.0 0.0 6.0 8.0 0.0 -292.0 0.0 2.0 7.0 8.0 10.0 9.0 6.0 6.0 2.0 3.0 1.0 4.0 9.0 3.0 3.0 0.0 5.0 8.0 5.0 7.0 6.0 3.0 0.0 2.0 10.0 1.0 4.0 6.0 2.0 7.0 5.0 9.0 1.0 8.0 5.0 1.0 5.0 10.0 7.0 7.0 5.0 6.0 
9.0 6.0 1.0 2.0 6.0 0.0 9.0 0.0 2.0 0.0 7.0 6.0 3.0 1.0 1.0 0.0 -243.0 1.0 10.0 0.0 0.0 2.0 2.0 3.0 2.0 1.0 3.0 9.0 5.0 9.0 4.0 1.0 1.0 7.0 6.0 10.0 8.0 2.0 5.0 5.0 6.0 6.0 5.0 9.0 3.0 0.0 10.0 3.0 1.0 7.0 4.0 1.0 8.0 3.0 8.0 7.0 6.0 7.0 
8.0 1.0 2.0 9.0 4.0 7.0 0.0 10.0 7.0 1.0 5.0 2.0 10.0 8.0 9.0 2.0 1.0 -296.0 6.0 0.0 8.0 4.0 2.0 3.0 10.0 9.0 1.0 7.0 5.0 5.0 7.0 4.0 9.0 3.0 9.0 9.0 0.0 0.0 8.0 8.0 3.0 3.0 7.0 7.0 3.0 3.0 3.0 9.0 9.0 4.0 6.0 1.0 9.0 4.0 5.0 9.0 4.0 4.0 
0.0 4.0 5.0 5.0 10.0 9.0 10.0 1.0 7.0 1.0 2.0 10.0 4.0 4.0 2.0 7.0 10.0 6.0 -314.0 2.0 3.0 9.0 6.0 6.0 10.0 5.0 5.0 10.0 10.0 8.0 3.0 0.0 4.0 7.0 5.0 1.0 8.0 2.0 7.0 6.0 5.0 0.0 9.0 4.0 0.0 2.0 7.0 5.0 9.0 5.0 3.0 9.0 8.0 10.0 3.0 6.0 7.0 8.0 
5.0 9.0 6.0 8.0 2.0 9.0 4.0 9.0 5.0 4.0 0.0 2.0 0.0 1.0 10.0 8.0 0.0 0.0 2.0 -261.0 10.0 8.0 5.0 6.0 7.0 8.0 0.0 0.0 3.0 10.0 4.0 3.0 3.0 5.0 8.0 0.0 9.0 6.0 6.0 4.0 8.0 5.0 3.0 3.0 10.0 0.0 1.0 2.0 0.0 3.0 1.0 0.0 10.0 9.0 5.0 9.0 1.0 2.0 
3.0 6.0 3.0 8.0 5.0 2.0 7.0 5.0 3.0 0.0 4.0 3.0 6.0 2.0 3.0 10.0 0.0 8.0 3.0 10.0 -281.0 8.0 0.0 6.0 4.0 5.0 8.0 10.0 4.0 9.0 1.0 10.0 0.0 0.0 2.0 6.0 8.0 9.0 10.0 8.0 4.0 7.0 0.0 0.0 7.0 7.0 6.0 4.0 1.0 0.0 7.0 10.0 1.0 3.0 9.0 6.0 0.0 10.0 
0.0 4.0 7.0 5.0 10.0 1.0 1.0 4.0 7.0 3.0 2.0 4.0 5.0 8.0 8.0 9.0 2.0 4.0 9.0 8.0 8.0 -268.0 0.0 2.0 8.0 1.0 9.0 7.0 7.0 4.0 4.0 6.0 1.0 2.0 7.0 10.0 1.0 10.0 1.0 6.0 4.0 4.0 4.0 1.0 3.0 0.0 4.0 10.0 7.0 1.0 1.0 4.0 0.0 3.0 5.0 9.0 9.0 4.0 
3.0 10.0 3.0 6.0 10.0 1.0 2.0 9.0 3.0 5.0 7.0 0.0 0.0 2.0 3.0 6.0 2.0 2.0 6.0 5.0 0.0 0.0 -263.0 7.0 8.0 4.0 4.0 3.0 4.0 4.0 2.0 9.0 10.0 4.0 8.0 4.0 4.0 3.0 5.0 5.0 7.0 3.0 6.0 2.0 8.0 4.0 1.0 1.0 8.0 8.0 3.0 6.0 9.0 8.0 3.0 8.0 2.0 3.0 
2.0 4.0 9.0 6.0 10.0 8.0 6.0 7.0 6.0 0.0 4.0 8.0 3.0 3.0 6.0 6.0 3.0 3.0 6.0 6.0 6.0 2.0 7.0 -282.0 1.0 10.0 6.0 6.0 0.0 4.0 3.0 2.0 5.0 8.0 3.0 4.0 8.0 1.0 9.0 0.0 10.0 5.0 8.0 0.0 10.0 8.0 3.0 8.0 2.0 5.0 8.0 5.0 2.0 1.0 3.0 1.0 8.0 4.0 
7.0 9.0 8.0 7.0 7.0 7.0 0.0 7.0 5.0 1.0 5.0 6.0 7.0 4.0 8.0 2.0 2.0 10.0 10.0 7.0 4.0 8.0 8.0 1.0 -307.0 10.0 9.0 2.0 8.0 2.0 6.0 0.0 10.0 6.0 2.0 6.0 5.0 2.0 9.0 5.0 3.0 2.0 2.0 3.0 3.0 8.0 6.0 10.0 7.0 0.0 4.0 8.0 4.0 1.0 8.0 6.0 4.0 6.0 
7.0 8.0 4.0 1.0 8.0 3.0 6.0 7.0 4.0 4.0 0.0 7.0 8.0 3.0 3.0 3.0 1.0 9.0 5.0 8.0 5.0 1.0 4.0 10.0 10.0 -303.0 7.0 6.0 0.0 3.0 5.0 8.0 4.0 3.0 1.0 0.0 1.0 2.0 10.0 4.0 6.0 9.0 4.0 10.0 8.0 0.0 0.0 9.0 10.0 10.0 10.0 10.0 9.0 6.0 8.0 2.0 7.0 2.0 
9.0 10.0 6.0 2.0 8.0 2.0 0.0 10.0 2.0 1.0 6.0 9.0 9.0 6.0 4.0 1.0 3.0 1.0 5.0 0.0 8.0 9.0 4.0 6.0 9.0 7.0 -304.0 1.0 5.0 6.0 6.0 0.0 4.0 2.0 9.0 8.0 7.0 2.0 5.0 5.0 1.0 9.0 6.0 10.0 8.0 7.0 5.0 10.0 3.0 4.0 10.0 6.0 10.0 4.0 6.0 6.0 0.0 2.0 
3.0 5.0 5.0 9.0 1.0 4.0 9.0 10.0 1.0 6.0 9.0 3.0 7.0 1.0 5.0 4.0 9.0 7.0 10.0 0.0 10.0 7.0 3.0 6.0 2.0 6.0 1.0 -297.0 8.0 7.0 9.0 10.0 6.0 1.0 1.0 7.0 4.0 1.0 6.0 8.0 3.0 1.0 6.0 7.0 3.0 10.0 1.0 8.0 8.0 9.0 10.0 2.0 0.0 9.0 7.0 0.0 1.0 1.0 
5.0 1.0 6.0 4.0 4.0 2.0 3.0 2.0 0.0 5.0 7.0 8.0 8.0 10.0 1.0 9.0 5.0 5.0 10.0 3.0 4.0 7.0 4.0 0.0 8.0 0.0 5.0 8.0 -252.0 7.0 9.0 3.0 8.0 5.0 4.0 1.0 2.0 1.0 6.0 3.0 4.0 3.0 1.0 9.0 0.0 1.0 3.0 1.0 3.0 9.0 9.0 4.0 1.0 1.0 7.0 10.0 0.0 3.0 
7.0 4.0 7.0 10.0 5.0 2.0 5.0 9.0 9.0 0.0 6.0 9.0 0.0 1.0 6.0 3.0 9.0 5.0 8.0 10.0 9.0 4.0 4.0 4.0 2.0 3.0 6.0 7.0 7.0 -299.0 9.0 8.0 4.0 7.0 6.0 7.0 2.0 2.0 9.0 6.0 7.0 6.0 0.0 9.0 1.0 5.0 6.0 4.0 1.0 6.0 1.0 3.0 5.0 1.0 5.0 4.0 4.0 10.0 
6.0 3.0 8.0 7.0 8.0 4.0 6.0 0.0 2.0 4.0 2.0 0.0 2.0 2.0 0.0 3.0 4.0 7.0 3.0 4.0 1.0 4.0 2.0 3.0 6.0 5.0 6.0 9.0 9.0 9.0 -245.0 0.0 1.0 1.0 7.0 5.0 3.0 2.0 0.0 9.0 5.0 6.0 6.0 0.0 7.0 2.0 0.0 4.0 9.0 8.0 0.0 8.0 7.0 6.0 5.0 5.0 6.0 4.0 
2.0 8.0 2.0 6.0 4.0 8.0 2.0 3.0 0.0 7.0 10.0 6.0 5.0 7.0 9.0 0.0 1.0 4.0 0.0 3.0 10.0 6.0 9.0 2.0 0.0 8.0 0.0 10.0 3.0 8.0 0.0 -251.0 3.0 7.0 2.0 2.0 0.0 5.0 1.0 2.0 3.0 3.0 8.0 10.0 0.0 2.0 7.0 4.0 2.0 6.0 2.0 4.0 2.0 10.0 10.0 8.0 5.0 0.0 
8.0 3.0 5.0 9.0 1.0 2.0 2.0 7.0 9.0 8.0 5.0 2.0 0.0 3.0 7.0 5.0 1.0 9.0 4.0 3.0 0.0 1.0 10.0 5.0 10.0 4.0 4.0 6.0 8.0 4.0 1.0 3.0 -267.0 10.0 7.0 5.0 10.0 2.0 1.0 5.0 5.0 6.0 7.0 8.0 1.0 2.0 1.0 5.0 0.0 1.0 9.0 5.0 5.0 10.0 0.0 0.0 8.0 5.0 
9.0 7.0 7.0 6.0 6.0 5.0 3.0 1.0 5.0 2.0 3.0 7.0 6.0 1.0 3.0 8.0 7.0 3.0 7.0 5.0 0.0 2.0 4.0 8.0 6.0 3.0 2.0 1.0 5.0 7.0 1.0 7.0 10.0 -246.0 1.0 1.0 3.0 10.0 0.0 10.0 3.0 1.0 0.0 7.0 6.0 0.0 0.0 4.0 3.0 3.0 2.0 9.0 0.0 9.0 5.0 9.0 3.0 0.0 
1.0 9.0 10.0 10.0 2.0 6.0 4.0 2.0 1.0 8.0 10.0 8.0 6.0 4.0 4.0 5.0 6.0 9.0 5.0 8.0 2.0 7.0 8.0 3.0 2.0 1.0 9.0 1.0 4.0 6.0 7.0 2.0 7.0 1.0 -285.0 3.0 1.0 5.0 9.0 1.0 4.0 8.0 0.0 0.0 6.0 4.0 9.0 1.0 9.0 4.0 5.0 3.0 4.0 5.0 4.0 7.0 7.0 8.0 
6.0 7.0 8.0 2.0 4.0 5.0 5.0 6.0 9.0 2.0 1.0 6.0 5.0 7.0 9.0 7.0 10.0 9.0 1.0 0.0 6.0 10.0 4.0 4.0 6.0 0.0 8.0 7.0 1.0 7.0 5.0 2.0 5.0 1.0 3.0 -301.0 9.0 3.0 10.0 5.0 5.0 6.0 8.0 1.0 6.0 1.0 6.0 1.0 7.0 0.0 8.0 4.0 9.0 9.0 3.0 4.0 8.0 10.0 
4.0 2.0 0.0 0.0 3.0 10.0 5.0 8.0 10.0 8.0 0.0 8.0 1.0 8.0 8.0 6.0 8.0 0.0 8.0 9.0 8.0 1.0 4.0 8.0 5.0 1.0 7.0 4.0 2.0 2.0 3.0 0.0 10.0 3.0 1.0 9.0 -304.0 10.0 9.0 7.0 4.0 2.0 6.0 9.0 0.0 7.0 8.0 7.0 9.0 8.0 7.0 3.0 8.0 6.0 6.0 4.0 0.0 10.0 
4.0 5.0 1.0 0.0 4.0 6.0 4.0 7.0 4.0 4.0 2.0 7.0 2.0 2.0 10.0 3.0 2.0 0.0 2.0 6.0 9.0 10.0 3.0 1.0 2.0 2.0 2.0 1.0 1.0 2.0 2.0 5.0 2.0 10.0 5.0 3.0 10.0 -237.0 3.0 5.0 10.0 9.0 5.0 4.0 0.0 2.0 9.0 7.0 2.0 4.0 6.0 9.0 1.0 5.0 3.0 1.0 0.0 7.0 
9.0 10.0 2.0 9.0 9.0 5.0 8.0 7.0 2.0 6.0 6.0 6.0 7.0 0.0 4.0 0.0 5.0 8.0 7.0 6.0 10.0 1.0 5.0 9.0 9.0 10.0 5.0 6.0 6.0 9.0 0.0 1.0 1.0 0.0 9.0 10.0 9.0 3.0 -315.0 7.0 9.0 1.0 0.0 1.0 2.0 10.0 9.0 8.0 1.0 0.0 6.0 10.0 9.0 8.0 0.0 9.0 6.0 0.0 
8.0 4.0 5.0 10.0 3.0 1.0 6.0 5.0 1.0 10.0 10.0 9.0 1.0 0.0 7.0 2.0 5.0 8.0 6.0 4.0 8.0 6.0 5.0 0.0 5.0 4.0 5.0 8.0 3.0 6.0 9.0 2.0 5.0 10.0 1.0 5.0 7.0 5.0 7.0 -299.0 5.0 2.0 10.0 7.0 0.0 3.0 6.0 9.0 4.0 4.0 0.0 0.0 8.0 3.0 8.0 10.0 6.0 8.0 
2.0 5.0 8.0 2.0 6.0 0.0 0.0 0.0 4.0 8.0 8.0 8.0 8.0 1.0 8.0 10.0 6.0 3.0 5.0 8.0 4.0 4.0 7.0 10.0 3.0 6.0 1.0 3.0 4.0 7.0 5.0 3.0 5.0 3.0 4.0 5.0 4.0 10.0 9.0 5.0 -299.0 8.0 8.0 6.0 9.0 8.0 1.0 8.0 1.0 6.0 5.0 0.0 10.0 5.0 10.0 3.0 3.0 6.0 
6.0 9.0 9.0 7.0 9.0 4.0 8.0 0.0 9.0 7.0 1.0 1.0 3.0 8.0 0.0 1.0 6.0 3.0 0.0 5.0 7.0 4.0 3.0 5.0 2.0 9.0 9.0 1.0 3.0 6.0 6.0 3.0 6.0 1.0 8.0 6.0 2.0 9.0 1.0 2.0 8.0 -269.0 5.0 5.0 3.0 2.0 5.0 9.0 2.0 5.0 3.0 10.0 4.0 2.0 4.0 3.0 0.0 10.0 
7.0 10.0 3.0 8.0 5.0 5.0 3.0 7.0 7.0 9.0 10.0 9.0 2.0 0.0 2.0 4.0 5.0 7.0 9.0 3.0 0.0 4.0 6.0 8.0 2.0 4.0 6.0 6.0 1.0 0.0 6.0 8.0 7.0 0.0 0.0 8.0 6.0 5.0 0.0 10.0 8.0 5.0 -278.0 4.0 0.0 10.0 6.0 7.0 4.0 3.0 6.0 3.0 9.0 2.0 1.0 2.0 6.0 0.0 
1.0 3.0 2.0 0.0 6.0 9.0 0.0 6.0 2.0 1.0 3.0 6.0 8.0 3.0 7.0 6.0 9.0 7.0 4.0 3.0 0.0 1.0 2.0 0.0 3.0 10.0 10.0 7.0 9.0 9.0 0.0 10.0 8.0 7.0 0.0 1.0 9.0 4.0 1.0 7.0 6.0 5.0 4.0 -276.0 7.0 7.0 4.0 8.0 5.0 2.0 0.0 6.0 8.0 7.0 5.0 6.0 5.0 7.0 
7.0 7.0 1.0 8.0 8.0 7.0 9.0 5.0 0.0 2.0 9.0 6.0 5.0 9.0 6.0 2.0 3.0 3.0 0.0 10.0 7.0 3.0 8.0 10.0 3.0 8.0 8.0 3.0 0.0 1.0 7.0 0.0 1.0 6.0 6.0 6.0 0.0 0.0 2.0 0.0 9.0 3.0 0.0 7.0 -268.0 5.0 8.0 7.0 1.0 3.0 5.0 5.0 10.0 2.0 8.0 1.0 6.0 2.0 
4.0 3.0 7.0 0.0 6.0 5.0 6.0 6.0 3.0 6.0 6.0 0.0 7.0 9.0 3.0 7.0 0.0 3.0 2.0 0.0 7.0 0.0 4.0 8.0 8.0 0.0 7.0 10.0 1.0 5.0 2.0 2.0 2.0 0.0 4.0 1.0 7.0 2.0 10.0 3.0 8.0 2.0 10.0 7.0 5.0 -271.0 10.0 10.0 5.0 4.0 7.0 2.0 0.0 9.0 10.0 5.0 1.0 10.0 
3.0 2.0 8.0 8.0 9.0 9.0 6.0 5.0 7.0 1.0 6.0 8.0 1.0 7.0 0.0 5.0 10.0 3.0 7.0 1.0 6.0 4.0 1.0 3.0 6.0 0.0 5.0 1.0 3.0 6.0 0.0 7.0 1.0 0.0 9.0 6.0 8.0 9.0 9.0 6.0 1.0 5.0 6.0 4.0 8.0 10.0 -298.0 9.0 5.0 6.0 9.0 6.0 10.0 3.0 3.0 8.0 9.0 0.0 
9.0 10.0 5.0 7.0 5.0 7.0 7.0 2.0 8.0 9.0 6.0 0.0 4.0 1.0 2.0 9.0 3.0 9.0 5.0 2.0 4.0 10.0 1.0 8.0 10.0 9.0 10.0 8.0 1.0 4.0 4.0 4.0 5.0 4.0 1.0 1.0 7.0 7.0 8.0 9.0 8.0 9.0 7.0 8.0 7.0 10.0 9.0 -336.0 5.0 8.0 7.0 2.0 6.0 10.0 2.0 7.0 4.0 2.0 
10.0 5.0 0.0 7.0 6.0 9.0 2.0 5.0 10.0 0.0 9.0 0.0 8.0 8.0 8.0 1.0 1.0 9.0 9.0 0.0 1.0 7.0 8.0 2.0 7.0 10.0 3.0 8.0 3.0 1.0 9.0 2.0 0.0 3.0 9.0 7.0 9.0 2.0 1.0 4.0 1.0 2.0 4.0 5.0 1.0 5.0 5.0 5.0 -273.0 6.0 0.0 9.0 7.0 8.0 1.0 3.0 4.0 4.0 
2.0 7.0 4.0 0.0 0.0 0.0 3.0 9.0 3.0 8.0 8.0 9.0 10.0 0.0 6.0 8.0 7.0 4.0 5.0 3.0 0.0 1.0 8.0 5.0 0.0 10.0 4.0 9.0 9.0 6.0 8.0 6.0 1.0 3.0 4.0 0.0 8.0 4.0 0.0 4.0 6.0 5.0 3.0 2.0 3.0 4.0 6.0 8.0 6.0 -262.0 10.0 5.0 0.0 10.0 4.0 1.0 2.0 1.0 
1.0 6.0 8.0 3.0 0.0 1.0 0.0 2.0 3.0 9.0 7.0 0.0 0.0 2.0 7.0 5.0 4.0 6.0 3.0 1.0 7.0 1.0 3.0 8.0 4.0 10.0 10.0 10.0 9.0 1.0 0.0 2.0 9.0 2.0 5.0 8.0 7.0 6.0 6.0 0.0 5.0 3.0 6.0 0.0 5.0 7.0 9.0 7.0 0.0 10.0 -259.0 4.0 4.0 8.0 6.0 2.0 3.0 4.0 
3.0 2.0 10.0 8.0 4.0 3.0 7.0 5.0 7.0 4.0 3.0 6.0 0.0 3.0 8.0 1.0 1.0 1.0 9.0 0.0 10.0 4.0 6.0 5.0 8.0 10.0 6.0 2.0 4.0 3.0 8.0 4.0 5.0 9.0 3.0 4.0 3.0 9.0 10.0 0.0 0.0 10.0 3.0 6.0 5.0 2.0 6.0 2.0 9.0 5.0 4.0 -285.0 4.0 10.0 8.0 3.0 7.0 3.0 
8.0 2.0 8.0 10.0 2.0 7.0 0.0 6.0 2.0 5.0 3.0 7.0 9.0 9.0 9.0 5.0 8.0 9.0 8.0 10.0 1.0 0.0 9.0 2.0 4.0 9.0 10.0 0.0 1.0 5.0 7.0 2.0 5.0 0.0 4.0 9.0 8.0 1.0 9.0 8.0 10.0 4.0 9.0 8.0 10.0 0.0 10.0 6.0 7.0 0.0 4.0 4.0 -325.0 2.0 10.0 3.0 8.0 9.0 
7.0 6.0 4.0 8.0 9.0 10.0 2.0 8.0 9.0 10.0 6.0 3.0 6.0 5.0 1.0 10.0 3.0 4.0 10.0 9.0 3.0 3.0 8.0 1.0 1.0 6.0 4.0 9.0 1.0 1.0 6.0 10.0 10.0 9.0 5.0 9.0 6.0 5.0 8.0 3.0 5.0 2.0 2.0 7.0 2.0 9.0 3.0 10.0 8.0 10.0 8.0 10.0 2.0 -339.0 10.0 1.0 10.0 2.0 
9.0 7.0 0.0 0.0 5.0 3.0 5.0 0.0 2.0 8.0 6.0 7.0 2.0 1.0 10.0 7.0 8.0 5.0 3.0 5.0 9.0 5.0 3.0 3.0 8.0 8.0 6.0 7.0 7.0 5.0 5.0 10.0 0.0 5.0 4.0 3.0 6.0 3.0 0.0 8.0 10.0 4.0 1.0 5.0 8.0 10.0 3.0 2.0 1.0 4.0 6.0 8.0 10.0 10.0 -293.0 7.0 2.0 4.0 
3.0 0.0 0.0 6.0 6.0 3.0 7.0 1.0 8.0 5.0 6.0 0.0 7.0 2.0 3.0 7.0 7.0 9.0 6.0 9.0 6.0 9.0 8.0 1.0 6.0 2.0 6.0 0.0 10.0 4.0 5.0 8.0 0.0 9.0 7.0 4.0 4.0 1.0 9.0 10.0 3.0 3.0 2.0 6.0 1.0 5.0 8.0 7.0 3.0 1.0 2.0 3.0 3.0 1.0 7.0 -269.0 3.0 7.0 
6.0 0.0 8.0 2.0 2.0 4.0 8.0 1.0 0.0 3.0 2.0 10.0 4.0 9.0 1.0 5.0 6.0 4.0 7.0 1.0 0.0 9.0 2.0 8.0 4.0 7.0 0.0 1.0 0.0 4.0 6.0 5.0 8.0 3.0 7.0 8.0 0.0 0.0 6.0 6.0 3.0 0.0 6.0 5.0 6.0 1.0 9.0 4.0 4.0 2.0 3.0 7.0 8.0 10.0 2.0 3.0 -242.0 2.0 
2.0 0.0 5.0 2.0 10.0 5.0 3.0 6.0 6.0 0.0 10.0 8.0 0.0 3.0 2.0 6.0 7.0 4.0 8.0 2.0 10.0 4.0 3.0 4.0 6.0 2.0 2.0 1.0 3.0 10.0 4.0 0.0 5.0 0.0 8.0 10.0 10.0 7.0 0.0 8.0 6.0 10.0 0.0 7.0 2.0 10.0 0.0 2.0 4.0 1.0 4.0 3.0 9.0 2.0 4.0 7.0 2.0 -259.0 

